c preprocessed version of HarriesGraph, 70 vertices, 105 edges
p td 70 105
0 1
0 36
0 66
1 12
1 48
2 3
2 22
3 4
3 57
4 5
4 44
5 6
5 37
6 7
6 51
7 8
7 63
8 9
9 10
9 24
10 11
10 33
11 13
11 59
12 23
12 55
13 14
13 42
14 15
14 50
15 16
16 17
16 30
17 18
17 38
18 19
19 20
19 60
20 21
20 52
21 22
21 66
22 24
23 8
23 34
24 25
25 26
25 39
26 27
26 49
27 28
28 29
28 58
29 30
29 65
30 31
31 32
31 46
32 33
32 53
33 35
34 18
34 45
35 36
36 37
37 38
38 39
39 40
40 41
40 54
41 42
41 64
42 43
43 44
44 46
45 43
45 56
46 47
47 48
47 61
48 49
49 50
50 51
51 52
52 53
53 54
54 55
55 57
56 27
56 67
57 58
58 59
59 60
60 61
61 62
62 63
63 64
64 65
65 66
67 35
67 68
68 62
68 69
69 2
69 15
